p tw 37 461
0 1
0 2
0 3
0 4
0 5
0 6
0 7
0 8
0 10
0 11
0 16
0 22
0 28
0 9
0 26
0 32
0 14
0 25
0 29
0 30
0 31
0 13
0 20
0 24
0 35
0 17
0 19
0 21
0 18
0 23
0 33
1 2
1 3
1 4
1 5
1 6
1 7
1 8
1 10
1 15
1 26
1 27
1 28
1 29
1 14
1 20
1 30
1 31
1 21
1 22
1 24
1 25
1 34
1 9
1 19
1 33
1 35
1 23
1 36
1 11
2 3
2 4
2 5
2 6
2 7
2 8
2 10
2 12
2 19
2 20
2 22
2 14
2 25
2 29
2 30
2 31
2 17
2 21
2 26
3 4
3 5
3 6
3 7
3 8
3 11
3 13
3 14
3 15
3 17
3 20
3 21
3 12
3 16
3 26
3 27
3 32
3 33
3 28
3 9
3 23
3 25
3 30
3 35
3 36
3 24
3 29
4 5
4 6
4 7
4 8
4 9
4 10
4 11
4 12
4 13
4 14
4 21
4 22
4 24
4 25
4 34
4 16
4 28
4 19
4 29
4 33
4 35
4 20
4 32
4 30
4 31
4 26
4 27
5 6
5 7
5 8
5 9
5 10
5 11
5 12
5 13
5 14
5 20
5 26
5 30
5 31
5 16
5 22
5 28
5 19
5 21
5 27
5 33
6 7
6 8
6 9
6 10
6 11
6 12
6 13
6 20
6 25
6 26
6 27
6 17
6 19
6 21
7 8
7 10
7 11
7 14
7 15
7 16
7 17
7 18
7 19
7 26
7 27
7 28
7 29
7 9
7 20
7 24
7 32
7 12
7 13
7 34
7 21
7 30
7 25
7 35
7 23
7 33
8 10
8 11
8 16
8 22
8 28
8 12
8 19
8 20
8 9
8 14
8 24
8 32
8 13
8 15
8 29
8 34
8 21
8 30
9 10
9 11
9 12
9 13
9 19
9 29
9 33
9 35
9 14
9 20
9 24
9 28
9 32
9 23
9 25
9 27
9 30
9 36
9 26
9 15
9 21
10 11
10 12
10 13
10 14
10 15
10 16
10 17
10 18
10 19
10 22
10 23
10 24
10 25
10 26
10 27
10 28
10 29
10 20
10 30
10 31
10 32
11 12
11 13
11 14
11 15
11 16
11 17
11 18
11 19
11 20
11 21
11 22
11 23
11 24
11 25
11 26
11 27
11 32
11 33
11 28
12 13
12 19
12 22
12 23
12 24
12 25
12 16
12 20
12 26
12 27
12 32
12 33
12 15
12 29
12 34
12 21
12 30
12 35
13 14
13 15
13 17
13 20
13 21
13 27
13 28
13 33
13 19
13 29
13 34
13 16
13 24
13 25
13 35
13 30
13 32
14 15
14 16
14 17
14 18
14 19
14 20
14 21
14 26
14 30
14 31
14 22
14 24
14 25
14 34
14 28
14 32
14 29
15 16
15 17
15 18
15 19
15 20
15 21
15 26
15 27
15 28
15 29
15 23
15 34
15 30
15 32
16 17
16 18
16 19
16 20
16 26
16 27
16 32
16 33
16 22
16 28
16 24
16 25
16 29
16 35
17 18
17 19
17 20
17 21
17 25
17 26
18 19
18 21
18 23
18 28
18 29
18 33
19 22
19 23
19 24
19 25
19 29
19 33
19 35
19 20
19 34
19 21
19 26
19 30
20 21
20 26
20 30
20 31
20 27
20 32
20 33
20 22
20 24
20 28
20 23
20 25
20 29
20 35
21 22
21 24
21 25
21 34
21 27
21 28
21 33
21 23
21 26
21 30
21 32
21 29
22 23
22 24
22 25
22 34
22 28
23 24
23 25
23 27
23 30
23 35
23 36
23 28
23 29
23 33
24 25
24 34
24 28
24 32
24 29
24 35
25 34
25 27
25 30
25 35
25 36
25 29
25 31
25 26
26 27
26 28
26 29
26 30
26 31
26 32
26 33
27 28
27 29
27 32
27 33
27 30
27 35
27 36
28 29
28 32
28 33
29 33
29 35
29 30
29 31
29 34
30 31
30 35
30 36
30 32
30 34
32 33
33 35
34 35
35 36
